
Gurobi 9.1.0 (win64) logging started Sat Jan  2 09:22:38 2021

Changed value of parameter LogFile to logs/iteration5
   Prev:   Default: 
Gurobi Optimizer version 9.1.0 build v9.1.0rc0 (win64)
Thread count: 4 physical cores, 8 logical processors, using up to 8 threads
Optimize a model with 136 rows, 336 columns and 1113 nonzeros
Model fingerprint: 0x6d35410d
Coefficient statistics:
  Matrix range     [1e+00, 1e+00]
  Objective range  [1e+03, 3e+03]
  Bounds range     [0e+00, 0e+00]
  RHS range        [1e+00, 1e+00]
Presolve removed 35 rows and 39 columns
Presolve time: 0.00s
Presolved: 101 rows, 297 columns, 1074 nonzeros

Iteration    Objective       Primal Inf.    Dual Inf.      Time
       0    5.0946250e+04   1.010000e+02   0.000000e+00      0s
     131    1.1575475e+05   0.000000e+00   0.000000e+00      0s

Solved in 131 iterations and 0.00 seconds
Optimal objective  1.157547500e+05

Solutionx[24] 1.000000 
x[26] 1.000000 
x[27] 1.000000 
x[32] 0.666667 
x[42] 0.333333 
x[54] 1.000000 
x[55] 1.000000 
x[64] 1.000000 
x[67] 1.000000 
x[70] 1.000000 
x[72] 1.000000 
x[74] 1.000000 
x[76] 1.000000 
x[77] 1.000000 
x[78] 1.000000 
x[82] 1.000000 
x[83] 1.000000 
x[91] 1.000000 
x[100] 1.000000 
x[101] 1.000000 
x[102] 1.000000 
x[104] 1.000000 
x[107] 1.000000 
x[114] 1.000000 
x[116] 1.000000 
x[117] 1.000000 
x[118] 1.000000 
x[120] 1.000000 
x[121] 1.000000 
x[122] 1.000000 
x[124] 1.000000 
x[127] 1.000000 
x[128] 1.000000 
x[129] 1.000000 
x[130] 1.000000 
x[131] 1.000000 
x[132] 1.000000 
x[133] 1.000000 
x[134] 1.000000 
x[135] 1.000000 
x[264] 0.333333 
x[552] 0.166667 
x[595] 0.333333 
x[728] 1.000000 
x[731] 0.166667 
x[810] 0.166667 
x[821] 1.000000 
x[1772] 0.833333 
x[2387] 0.833333 
x[2542] 0.666667 
x[2864] 0.166667 
x[2915] 1.000000 
x[3127] 0.666667 
x[3183] 0.666667 
x[4760] 0.333333 
x[5967] 1.000000 
x[12284] 0.333333 
x[19875] 0.333333 
x[20743] 0.666667 
x[31906] 0.666667 
x[33291] 0.333333 
x[8781] 0.333333 
x[9171] 1.000000 
x[1740] 1.000000 
x[9476] 1.000000 
x[6523] 1.000000 
x[13128] 1.000000 
x[18798] 1.000000 
x[30408] 1.000000 
x[16501] 0.833333 
x[29497] 0.166667 
x[10403] 1.000000 
x[10912] 1.000000 
x[21081] 0.166667 
x[29867] 0.833333 
x[12011] 1.000000 
x[16091] 0.166667 
x[19396] 0.833333 
x[3447] 1.000000 
